(set-info :smt-lib-version 2.6)
(set-logic LRA)
(set-info :source |
   Monniaux, David; Quantifier Elimination by Lazy Model Enumeration, CAV 2010
|)
(set-info :category "random")
; ./Mjollnir_examples/B4/formula_014.m
(set-info :status unsat)
(assert
 (exists ((|v11:0| Real) )(exists ((|v10:1| Real) )(exists ((|v9:2| Real) )(exists ((|v8:3| Real) )(forall ((|v7:4| Real) )(forall ((|v6:5| Real) )(forall ((|v5:6| Real) )(forall ((|v4:7| Real) )(exists ((|v3:8| Real) )(exists ((|v2:9| Real) )(exists ((|v1:10| Real) )(exists ((|v0:11| Real) )(let ((?x273 9))
(let ((?x596 (+ (+ (* 0 |v5:6|) (* (- 19) |v8:3|)) (* 15 |v3:8|))))
(let ((?x40 (- 11)))
(let ((?x135 14))
(let ((?x441 (* ?x135 |v7:4|)))
(let ((?x590 (+ (+ (* 0 |v5:6|) (* (- 20) |v5:6|)) (* 3 |v5:6|))))
(let ((?x143 16))
(let ((?x579 (+ (+ (* (- 17) |v9:2|) (* (- 8) |v6:5|)) (* 11 |v3:8|))))
(let ((?x206 (- 2)))
(let ((?x74 (- 18)))
(let ((?x75 (* ?x74 |v6:5|)))
(let ((?x573 (+ (+ (* (- 13) |v5:6|) (* 20 |v6:5|)) (* ?x206 |v2:9|))))
(let (($x583 (and (<= (+ ?x573 ?x75) ?x206) (<= (+ ?x579 (* (- 12) |v10:1|)) ?x143))))
(let ((?x336 (- 14)))
(let ((?x374 (* ?x40 |v5:6|)))
(let ((?x259 (* ?x135 |v9:2|)))
(let ((?x567 (+ (+ (+ (* (- 5) |v0:11|) (* (- 15) |v2:9|)) ?x259) ?x374)))
(let ((?x301 3))
(let ((?x302 (* ?x301 |v8:3|)))
(let ((?x561 (+ (+ (+ (* ?x74 |v10:1|) (* 6 |v2:9|)) (* ?x74 |v0:11|)) ?x302)))
(let ((?x32 2))
(let ((?x555 (+ (+ (+ (* ?x273 |v4:7|) (* ?x74 |v10:1|)) (* (- 15) |v3:8|)) (* 10 |v4:7|))))
(let ((?x46 (- 8)))
(let ((?x548 (* ?x74 |v10:1|)))
(let ((?x549 (+ (+ (+ (* 19 |v0:11|) (* (- 4) |v9:2|)) |v10:1|) ?x548)))
(let (($x570 (or (and (<= ?x549 ?x46) (<= ?x555 ?x32)) (and (<= ?x561 ?x301) (<= ?x567 ?x336)))))
(let (($x601 (and $x570 (and $x583 (and (<= (+ ?x590 ?x441) ?x40) (<= (+ ?x596 |v2:9|) ?x273))))))
(let ((?x176 (- 17)))
(let ((?x538 (+ (+ (* 4 |v10:1|) (* 6 |v2:9|)) (* ?x143 |v8:3|))))
(let ((?x150 13))
(let ((?x128 (* ?x32 |v11:0|)))
(let ((?x534 (+ (+ (+ (* ?x176 |v3:8|) (* (- 20) |v6:5|)) (* ?x206 |v7:4|)) ?x128)))
(let ((?x528 (+ (+ (+ (* ?x273 |v6:5|) ?x75) (* (- 9) |v3:8|)) (* ?x336 |v1:10|))))
(let ((?x520 (+ (+ (* (- 5) |v1:10|) (* 15 |v10:1|)) (* (- 4) |v3:8|))))
(let (($x543 (and (and (<= (+ ?x520 (* ?x206 |v0:11|)) ?x301) (<= ?x528 ?x143)) (or (<= ?x534 ?x150) (<= (+ ?x538 (* 12 |v2:9|)) ?x176)))))
(let ((?x105 20))
(let ((?x106 (* ?x105 |v9:2|)))
(let ((?x512 (+ (+ (* (- 6) |v2:9|) (* (- 1) |v6:5|)) (* ?x150 |v7:4|))))
(let ((?x21 (- 7)))
(let ((?x505 (+ (+ (* 19 |v7:4|) (* (- 4) |v1:10|)) (* ?x143 |v7:4|))))
(let ((?x172 (- 1)))
(let ((?x237 (- 5)))
(let ((?x387 (* ?x237 |v9:2|)))
(let ((?x498 (+ (+ (* ?x273 |v6:5|) (* 17 |v2:9|)) (* (- 10) |v4:7|))))
(let ((?x493 (+ (+ (+ (* ?x301 |v10:1|) (* 19 |v7:4|)) (* ?x21 |v11:0|)) (* ?x46 |v0:11|))))
(let (($x516 (and (and (<= ?x493 ?x273) (<= (+ ?x498 ?x387) ?x172)) (and (<= (+ ?x505 (* ?x301 |v4:7|)) ?x21) (<= (+ ?x512 ?x106) ?x143)))))
(let ((?x481 (+ (+ (+ (* ?x150 |v0:11|) (* ?x32 |v5:6|)) (* (- 6) |v8:3|)) (* ?x40 |v6:5|))))
(let ((?x10 (- 20)))
(let ((?x53 (* ?x10 |v0:11|)))
(let ((?x476 (+ (+ (+ (* ?x105 |v2:9|) (* 12 |v10:1|)) (* ?x10 |v1:10|)) ?x53)))
(let ((?x469 (+ (+ (+ (* 5 |v9:2|) |v0:11|) (* (- 19) |v11:0|)) (* 10 |v7:4|))))
(let ((?x22 (* ?x21 |v10:1|)))
(let ((?x463 (+ (+ (+ (* (- 4) |v8:3|) (* ?x40 |v1:10|)) (* ?x74 |v11:0|)) ?x22)))
(let (($x484 (and (and (<= ?x463 ?x10) (<= ?x469 ?x237)) (and (<= ?x476 ?x10) (<= ?x481 ?x143)))))
(let ((?x63 8))
(let ((?x24 (- 13)))
(let ((?x332 (* ?x24 |v5:6|)))
(let ((?x453 (+ (+ (* (- 10) |v10:1|) (* ?x21 |v7:4|)) (* 11 |v2:9|))))
(let ((?x447 (+ (+ (+ ?x441 (* ?x150 |v5:6|)) (* ?x206 |v7:4|)) (* (- 15) |v0:11|))))
(let ((?x437 (* ?x150 |v0:11|)))
(let ((?x197 12))
(let ((?x198 (* ?x197 |v0:11|)))
(let (($x439 (<= (+ (+ (+ (* ?x176 |v8:3|) (* (- 4) |v9:2|)) ?x198) ?x437) ?x172)))
(let ((?x431 (+ (+ (+ (* ?x46 |v6:5|) (* 6 |v7:4|)) |v6:5|) (* ?x40 |v8:3|))))
(let (($x457 (and (and (<= ?x431 ?x150) $x439) (and (<= ?x447 ?x206) (<= (+ ?x453 ?x332) ?x63)))))
(let ((?x118 4))
(let ((?x169 (- 9)))
(let ((?x364 (* ?x169 |v1:10|)))
(let ((?x420 (+ (+ (* 19 |v9:2|) (* (- 6) |v8:3|)) (* (- 10) |v7:4|))))
(let ((?x113 (- 12)))
(let ((?x88 18))
(let ((?x221 (* ?x88 |v2:9|)))
(let ((?x415 (+ (+ (+ (* ?x172 |v6:5|) (* (- 15) |v1:10|)) ?x221) (* ?x63 |v9:2|))))
(let ((?x406 (+ (+ (* (- 10) |v6:5|) (* 11 |v6:5|)) (* ?x197 |v3:8|))))
(let ((?x400 (+ (+ (+ (* ?x74 |v2:9|) (* ?x176 |v0:11|)) (* 17 |v0:11|)) (* ?x88 |v9:2|))))
(let (($x424 (and (and (<= ?x400 (- 3)) (<= (+ ?x406 ?x387) ?x169)) (and (<= ?x415 ?x113) (<= (+ ?x420 ?x364) ?x118)))))
(let (($x393 (<= (+ (+ (+ ?x387 (* ?x172 |v1:10|)) (* ?x74 |v1:10|)) (* ?x32 |v6:5|)) ?x10)))
(let ((?x385 (+ (+ (+ (* ?x197 |v5:6|) (* 10 |v8:3|)) (* ?x172 |v9:2|)) (* ?x206 |v1:10|))))
(let (($x377 (<= (+ (+ (+ (* ?x113 |v8:3|) (* ?x113 |v2:9|)) ?x374) (* ?x63 |v7:4|)) ?x46)))
(let ((?x369 (+ (+ (+ ?x364 (* ?x21 |v2:9|)) (* 11 |v5:6|)) (* (- 19) |v6:5|))))
(let (($x425 (and (and (and (<= ?x369 ?x197) $x377) (and (<= ?x385 ?x40) $x393)) $x424)))
(let ((?x131 15))
(let ((?x356 (* ?x131 |v10:1|)))
(let ((?x173 (* ?x172 |v7:4|)))
(let ((?x357 (+ (+ (+ (* 17 |v7:4|) (* (- 10) |v0:11|)) ?x173) ?x356)))
(let ((?x37 17))
(let ((?x348 (+ (+ (* (- 6) |v6:5|) (* ?x143 |v0:11|)) (* (- 16) |v11:0|))))
(let ((?x342 (+ (+ (+ (* ?x336 |v8:3|) (* ?x118 |v10:1|)) (* (- 15) |v3:8|)) (* (- 15) |v11:0|))))
(let ((?x333 (+ (+ (+ (* ?x143 |v2:9|) (* ?x118 |v11:0|)) (* (- 15) |v9:2|)) ?x332)))
(let (($x360 (and (or (<= ?x333 ?x176) (<= ?x342 ?x105)) (and (<= (+ ?x348 (* 19 |v3:8|)) ?x37) (<= ?x357 ?x74)))))
(let (($x326 (<= (+ (+ (+ (* ?x301 |v7:4|) (* ?x24 |v7:4|)) |v0:11|) (* ?x74 |v1:10|)) ?x131)))
(let ((?x247 (* ?x63 |v7:4|)))
(let ((?x318 (+ (+ (+ (* ?x113 |v6:5|) (* ?x46 |v5:6|)) (* 6 |v2:9|)) ?x247)))
(let ((?x311 (- 4)))
(let (($x312 (<= (+ (+ (+ (* ?x273 |v11:0|) (* ?x273 |v8:3|)) (* ?x24 |v0:11|)) ?x259) ?x311)))
(let ((?x299 (+ (+ (* ?x24 |v0:11|) (* 11 |v1:10|)) (* (- 6) |v9:2|))))
(let (($x361 (and (and (and (<= (+ ?x299 ?x302) ?x113) $x312) (and (<= ?x318 ?x74) $x326)) $x360)))
(let ((?x290 (+ (+ (+ (* ?x10 |v11:0|) (* (- 10) |v3:8|)) (* ?x169 |v8:3|)) (* ?x21 |v6:5|))))
(let ((?x282 (+ (+ (+ (* ?x113 |v3:8|) (* ?x197 |v1:10|)) (* ?x150 |v9:2|)) (* (- 16) |v1:10|))))
(let ((?x270 (+ (+ (* (- 10) |v8:3|) (* ?x169 |v4:7|)) (* (- 16) |v3:8|))))
(let ((?x262 (* ?x37 |v2:9|)))
(let (($x264 (<= (+ (+ (+ (* (- 6) |v0:11|) ?x259) (* ?x135 |v8:3|)) ?x262) ?x21)))
(let (($x293 (or (and $x264 (<= (+ ?x270 (* 10 |v0:11|)) ?x273)) (and (<= ?x282 ?x40) (<= ?x290 ?x32)))))
(let ((?x254 (+ (+ (+ (* ?x169 |v7:4|) ?x247) (* (- 15) |v3:8|)) (* 19 |v8:3|))))
(let ((?x244 (- 10)))
(let ((?x93 (- 15)))
(let ((?x242 (* ?x93 |v9:2|)))
(let (($x245 (<= (+ (+ (+ |v5:6| (* ?x237 |v2:9|)) (* 6 |v1:10|)) ?x242) ?x244)))
(let ((?x232 (+ (+ (+ (* 5 |v1:10|) (* ?x105 |v6:5|)) (* ?x21 |v0:11|)) (* 11 |v10:1|))))
(let ((?x223 (* ?x113 |v6:5|)))
(let (($x225 (<= (+ (+ (+ (* ?x150 |v1:10|) (* 5 |v11:0|)) ?x221) ?x223) ?x113)))
(let (($x294 (and (and (and $x225 (<= ?x232 ?x21)) (and $x245 (<= ?x254 ?x150))) $x293)))
(let ((?x213 (+ (+ (+ (* ?x206 |v5:6|) (* (- 6) |v6:5|)) (* ?x10 |v9:2|)) (* ?x118 |v3:8|))))
(let ((?x203 (+ (+ (+ (* ?x21 |v3:8|) ?x198) (* (- 19) |v9:2|)) (* ?x118 |v7:4|))))
(let ((?x192 6))
(let ((?x50 5))
(let ((?x108 (* ?x50 |v11:0|)))
(let ((?x191 (+ (+ (+ (* (- 3) |v0:11|) (* 11 |v8:3|)) |v3:8|) ?x108)))
(let (($x181 (<= (+ (+ (+ (* ?x169 |v11:0|) ?x173) (* ?x176 |v11:0|)) (* ?x135 |v5:6|)) ?x88)))
(let ((?x163 (* ?x21 |v2:9|)))
(let ((?x164 (+ (+ (+ (* ?x37 |v0:11|) (* ?x46 |v1:10|)) (* (- 19) |v10:1|)) ?x163)))
(let ((?x156 (+ (+ (+ (* ?x10 |v1:10|) (* ?x150 |v2:9|)) (* (- 6) |v8:3|)) (* (- 16) |v8:3|))))
(let ((?x89 (* ?x88 |v7:4|)))
(let (($x147 (<= (+ (+ (+ (* ?x135 |v8:3|) (* ?x88 |v8:3|)) (* ?x143 |v5:6|)) ?x89) ?x131)))
(let ((?x66 10))
(let (($x138 (<= (+ (+ (+ (* ?x50 |v6:5|) ?x128) (* ?x131 |v5:6|)) (* ?x135 |v10:1|)) ?x66)))
(let (($x217 (and (and (and $x138 $x147) (or (<= ?x156 ?x131) (<= ?x164 ?x74))) (and (and $x181 (<= ?x191 ?x192)) (and (<= ?x203 ?x63) (<= ?x213 ?x21))))))
(let ((?x115 (* ?x88 |v6:5|)))
(let (($x123 (<= (+ (+ (+ (* ?x113 |v1:10|) ?x115) (* ?x118 |v11:0|)) ?x115) 1)))
(let (($x110 (<= (+ (+ (+ (* 7 |v8:3|) (* ?x74 |v2:9|)) ?x106) ?x108) ?x46)))
(let ((?x16 (- 16)))
(let ((?x99 (+ (+ (+ (* ?x93 |v10:1|) (* ?x66 |v5:6|)) (* ?x10 |v3:8|)) (* ?x66 |v3:8|))))
(let ((?x90 (+ (+ (+ (* (- 6) |v3:8|) (* ?x66 |v9:2|)) (* ?x21 |v9:2|)) ?x89)))
(let ((?x76 (+ (+ (+ (* ?x63 |v3:8|) (* ?x66 |v5:6|)) (* (- 19) |v11:0|)) ?x75)))
(let ((?x59 (- 6)))
(let ((?x57 (* 7 |v8:3|)))
(let (($x78 (and (<= (+ (+ (+ (* ?x46 |v4:7|) (* ?x50 |v8:3|)) ?x53) ?x57) ?x59) (<= ?x76 ?x16))))
(let (($x41 (<= (+ (+ (+ |v0:11| (* ?x10 |v1:10|)) (* ?x32 |v5:6|)) (* ?x37 |v11:0|)) ?x40)))
(let (($x42 (and (<= (+ (+ (+ (* ?x10 |v6:5|) |v5:6|) (* ?x16 |v2:9|)) ?x22) ?x24) $x41)))
(let (($x126 (or (and $x42 $x78) (and (and (<= ?x90 ?x16) (<= ?x99 ?x16)) (and $x110 $x123)))))
(and (and (and $x126 $x217) (and $x294 $x361)) (and (and $x425 (or $x457 $x484)) (and (and $x516 $x543) $x601))))))))))))))))))))))))))))))))))))))))))))))))))))))))))))))))))))))))))))))))))))))))))))))))))))))))))))))))))))))))))))))))))))))))))))))))
)
)
)
)
)
)
)
)
)
)
)
)
(check-sat)
(exit)

